DIMACS2
40 273 244 109 287 10 103 27 158 232 173 49 30 206 115 280 133 317 167 298 129 92 180 254 6 261 25 203 286 90 147 142 89 197 24 51 55 269 281 230 172
p edge 320 1311
e 0 194 1.0
e 0 129 31.0
e 0 128 1.0
e 0 40 1.0
e 1 210 1.0
e 1 127 2.0
e 1 90 38.0
e 1 233 1.0
e 2 58 1.0
e 2 314 1.0
e 2 62 1.0
e 2 151 1.0
e 3 144 1.0
e 3 146 1.0
e 3 310 1.0
e 3 23 2.0
e 4 45 1.0
e 4 223 1.0
e 4 275 1.0
e 4 153 1.0
e 5 137 1.0
e 5 222 1.0
e 5 176 1.0
e 5 143 1.0
e 6 300 35.0
e 6 229 8.0
e 6 161 15.0
e 6 301 31.0
e 6 317 37.0
e 6 287 1.0
e 6 230 42.0
e 6 10 5.0
e 7 101 1.0
e 7 92 15.0
e 7 229 1.0
e 7 212 2.0
e 8 217 1.0
e 8 46 3.0
e 8 113 2.0
e 8 288 1.0
e 9 272 1.0
e 9 17 1.0
e 9 186 1.0
e 9 315 1.0
e 10 0 22.0
e 10 142 23.0
e 10 73 45.0
e 10 139 10.0
e 11 311 2.0
e 11 91 1.0
e 11 242 1.0
e 11 189 3.0
e 12 170 1.0
e 12 50 1.0
e 12 25 37.0
e 12 283 2.0
e 13 205 1.0
e 13 201 1.0
e 13 275 1.0
e 13 251 1.0
e 14 268 2.0
e 14 201 1.0
e 14 316 1.0
e 14 112 2.0
e 15 305 2.0
e 15 181 1.0
e 15 73 1.0
e 15 104 2.0
e 16 168 1.0
e 16 163 2.0
e 16 41 1.0
e 16 85 1.0
e 17 85 1.0
e 17 235 2.0
e 17 176 1.0
e 17 243 1.0
e 18 63 2.0
e 18 191 1.0
e 18 205 1.0
e 18 170 1.0
e 19 133 33.0
e 19 172 24.0
e 19 252 2.0
e 19 101 1.0
e 20 293 1.0
e 20 146 1.0
e 20 295 1.0
e 20 179 1.0
e 21 229 1.0
e 21 91 1.0
e 21 136 1.0
e 21 239 1.0
e 22 166 1.0
e 22 94 3.0
e 22 315 1.0
e 22 129 32.0
e 23 245 1.0
e 23 242 3.0
e 23 317 5.0
e 23 14 1.0
e 24 32 27.0
e 24 41 7.0
e 24 134 39.0
e 24 233 28.0
e 24 129 43.0
e 24 269 24.0
e 25 80 10.0
e 25 61 21.0
e 25 233 37.0
e 25 146 2.0
e 26 270 1.0
e 26 176 1.0
e 26 57 2.0
e 26 274 1.0
e 27 4 30.0
e 27 192 4.0
e 27 63 44.0
e 27 73 27.0
e 28 102 1.0
e 28 122 1.0
e 28 83 1.0
e 28 226 1.0
e 29 106 1.0
e 29 252 1.0
e 29 211 1.0
e 29 255 1.0
e 30 114 17.0
e 30 307 11.0
e 30 267 10.0
e 30 229 44.0
e 30 103 23.0
e 30 133 36.0
e 30 230 8.0
e 30 232 20.0
e 31 13 1.0
e 31 305 1.0
e 31 209 1.0
e 31 77 2.0
e 32 90 11.0
e 32 202 1.0
e 32 37 1.0
e 32 300 1.0
e 33 81 1.0
e 33 66 1.0
e 33 178 1.0
e 33 306 1.0
e 34 159 1.0
e 34 267 1.0
e 34 111 1.0
e 34 274 1.0
e 35 139 1.0
e 35 302 1.0
e 35 62 1.0
e 35 257 1.0
e 36 52 1.0
e 36 295 1.0
e 36 142 30.0
e 36 259 1.0
e 37 235 2.0
e 37 178 2.0
e 37 0 2.0
e 37 290 2.0
e 38 204 2.0
e 38 260 1.0
e 38 120 3.0
e 38 162 1.0
e 39 15 1.0
e 39 233 2.0
e 39 76 1.0
e 39 181 1.0
e 40 114 1.0
e 40 220 1.0
e 40 116 1.0
e 40 99 1.0
e 41 163 1.0
e 41 10 47.0
e 41 244 43.0
e 41 54 1.0
e 42 135 1.0
e 42 72 1.0
e 42 122 1.0
e 42 231 1.0
e 43 83 1.0
e 43 186 1.0
e 43 154 1.0
e 43 211 1.0
e 44 79 2.0
e 44 198 2.0
e 44 268 1.0
e 44 1 1.0
e 45 201 1.0
e 45 108 2.0
e 45 84 1.0
e 45 236 1.0
e 46 199 1.0
e 46 62 1.0
e 46 53 1.0
e 46 4 2.0
e 47 11 1.0
e 47 123 1.0
e 47 14 2.0
e 47 264 1.0
e 48 307 1.0
e 48 181 1.0
e 48 293 2.0
e 48 139 1.0
e 49 145 25.0
e 49 109 48.0
e 49 288 5.0
e 49 39 23.0
e 49 55 37.0
e 49 206 21.0
e 49 180 34.0
e 49 158 8.0
e 50 129 45.0
e 50 83 3.0
e 50 222 1.0
e 51 192 16.0
e 51 14 41.0
e 51 123 45.0
e 51 307 33.0
e 51 254 18.0
e 51 206 43.0
e 51 261 27.0
e 51 89 18.0
e 52 32 1.0
e 52 237 1.0
e 52 40 1.0
e 52 115 38.0
e 53 268 1.0
e 53 155 1.0
e 53 99 1.0
e 53 80 1.0
e 54 160 1.0
e 54 236 1.0
e 54 139 1.0
e 54 225 1.0
e 55 291 32.0
e 55 0 28.0
e 55 59 8.0
e 55 64 39.0
e 55 280 42.0
e 55 232 40.0
e 56 308 2.0
e 56 297 1.0
e 56 286 13.0
e 56 75 1.0
e 57 177 1.0
e 57 238 2.0
e 57 69 2.0
e 57 116 1.0
e 58 134 1.0
e 58 260 1.0
e 58 203 41.0
e 58 183 2.0
e 59 217 2.0
e 59 165 1.0
e 59 205 2.0
e 59 155 2.0
e 60 257 2.0
e 60 183 1.0
e 60 197 19.0
e 60 202 1.0
e 61 44 1.0
e 61 284 1.0
e 61 28 1.0
e 61 269 25.0
e 62 297 1.0
e 62 59 1.0
e 62 240 1.0
e 62 201 1.0
e 63 164 2.0
e 63 65 1.0
e 63 111 1.0
e 63 226 1.0
e 64 16 1.0
e 64 282 2.0
e 64 138 2.0
e 64 66 1.0
e 65 61 1.0
e 65 270 1.0
e 65 89 26.0
e 65 165 1.0
e 66 14 2.0
e 66 229 1.0
e 66 25 23.0
e 66 145 1.0
e 67 62 1.0
e 67 48 1.0
e 67 288 1.0
e 67 25 5.0
e 68 67 1.0
e 68 192 1.0
e 68 27 2.0
e 68 293 2.0
e 69 309 1.0
e 69 168 1.0
e 69 275 1.0
e 69 200 1.0
e 70 123 1.0
e 70 113 2.0
e 70 105 1.0
e 70 183 2.0
e 71 50 2.0
e 71 18 1.0
e 71 190 1.0
e 71 113 1.0
e 72 206 23.0
e 72 283 1.0
e 72 158 42.0
e 72 43 1.0
e 73 217 2.0
e 73 40 1.0
e 73 124 1.0
e 73 264 1.0
e 74 288 1.0
e 74 121 1.0
e 74 293 1.0
e 74 201 2.0
e 75 83 2.0
e 75 57 2.0
e 75 291 1.0
e 75 248 2.0
e 76 99 2.0
e 76 10 1.0
e 76 192 1.0
e 76 14 1.0
e 77 281 31.0
e 77 202 2.0
e 77 193 1.0
e 77 276 2.0
e 78 272 2.0
e 78 45 2.0
e 78 161 1.0
e 78 109 48.0
e 79 158 12.0
e 79 207 1.0
e 79 98 2.0
e 79 41 2.0
e 80 286 6.0
e 80 189 2.0
e 80 62 1.0
e 80 261 44.0
e 81 298 25.0
e 81 254 19.0
e 81 300 1.0
e 81 58 1.0
e 82 53 1.0
e 82 66 3.0
e 82 32 1.0
e 82 165 1.0
e 83 66 2.0
e 83 288 1.0
e 83 132 2.0
e 83 105 1.0
e 84 304 2.0
e 84 299 1.0
e 84 275 1.0
e 84 185 1.0
e 85 293 2.0
e 85 152 1.0
e 85 57 2.0
e 85 172 34.0
e 86 199 2.0
e 86 239 2.0
e 86 254 10.0
e 86 58 2.0
e 87 313 1.0
e 87 150 1.0
e 87 56 2.0
e 87 18 2.0
e 88 186 1.0
e 88 274 2.0
e 88 182 1.0
e 88 203 40.0
e 89 108 44.0
e 89 24 13.0
e 89 316 18.0
e 89 44 13.0
e 90 189 12.0
e 90 98 3.0
e 90 307 26.0
e 90 295 19.0
e 90 89 33.0
e 90 147 49.0
e 91 294 1.0
e 91 43 1.0
e 91 109 16.0
e 91 15 1.0
e 92 34 28.0
e 92 249 5.0
e 92 60 13.0
e 92 305 40.0
e 93 119 1.0
e 93 155 1.0
e 93 210 1.0
e 93 251 1.0
e 94 238 1.0
e 94 170 2.0
e 94 258 2.0
e 94 315 1.0
e 95 300 1.0
e 95 163 1.0
e 95 137 1.0
e 95 25 11.0
e 96 262 1.0
e 96 130 1.0
e 96 92 11.0
e 96 48 1.0
e 97 73 1.0
e 97 36 2.0
e 97 23 1.0
e 97 137 1.0
e 98 259 1.0
e 98 300 1.0
e 98 212 1.0
e 98 25 31.0
e 99 223 1.0
e 99 275 1.0
e 99 149 1.0
e 99 228 2.0
e 100 29 1.0
e 100 148 3.0
e 100 123 1.0
e 100 149 1.0
e 101 52 1.0
e 101 286 48.0
e 101 277 2.0
e 101 34 1.0
e 102 189 1.0
e 102 129 29.0
e 102 115 3.0
e 102 211 1.0
e 103 91 48.0
e 103 252 12.0
e 103 110 39.0
e 103 217 15.0
e 103 317 21.0
e 104 211 2.0
e 104 298 37.0
e 104 244 28.0
e 104 55 49.0
e 105 289 1.0
e 105 224 1.0
e 105 188 1.0
e 105 255 1.0
e 106 215 1.0
e 106 166 1.0
e 106 171 1.0
e 106 225 1.0
e 107 219 1.0
e 107 106 1.0
e 107 98 1.0
e 107 265 1.0
e 108 218 1.0
e 108 267 1.0
e 108 291 2.0
e 108 123 1.0
e 109 183 1.0
e 109 52 16.0
e 109 205 46.0
e 109 143 6.0
e 110 34 1.0
e 110 86 1.0
e 110 49 36.0
e 110 196 1.0
e 111 152 2.0
e 111 100 1.0
e 111 313 1.0
e 111 213 1.0
e 112 149 1.0
e 112 290 1.0
e 112 164 1.0
e 112 278 1.0
e 113 84 3.0
e 113 298 27.0
e 113 236 1.0
e 113 316 2.0
e 114 256 1.0
e 114 27 44.0
e 114 153 1.0
e 114 39 2.0
e 115 145 25.0
e 115 232 31.0
e 115 155 7.0
e 115 187 49.0
e 115 142 49.0
e 115 147 19.0
e 116 294 1.0
e 116 113 1.0
e 116 175 1.0
e 116 111 1.0
e 117 301 1.0
e 117 158 33.0
e 117 214 2.0
e 117 115 43.0
e 118 158 35.0
e 118 198 1.0
e 118 222 2.0
e 118 13 2.0
e 119 270 3.0
e 119 24 30.0
e 119 203 22.0
e 119 205 1.0
e 120 186 1.0
e 120 256 1.0
e 120 300 1.0
e 120 17 1.0
e 121 309 3.0
e 121 103 22.0
e 121 122 2.0
e 121 113 2.0
e 122 177 1.0
e 122 197 17.0
e 122 281 44.0
e 122 35 1.0
e 123 293 2.0
e 123 104 1.0
e 123 261 41.0
e 124 10 11.0
e 124 280 10.0
e 124 34 1.0
e 124 157 1.0
e 125 237 1.0
e 125 53 1.0
e 125 118 2.0
e 125 33 1.0
e 126 180 6.0
e 126 158 3.0
e 126 215 1.0
e 126 2 1.0
e 127 133 32.0
e 127 52 1.0
e 127 139 2.0
e 127 22 2.0
e 128 224 1.0
e 128 211 1.0
e 128 130 1.0
e 128 245 3.0
e 129 295 4.0
e 129 74 41.0
e 129 247 17.0
e 129 221 18.0
e 130 173 23.0
e 130 101 1.0
e 130 293 1.0
e 130 232 37.0
e 131 54 1.0
e 131 249 2.0
e 131 99 1.0
e 131 21 1.0
e 132 139 1.0
e 132 305 2.0
e 132 92 19.0
e 132 263 1.0
e 133 186 7.0
e 133 114 20.0
e 133 16 13.0
e 133 236 45.0
e 134 60 1.0
e 134 305 2.0
e 134 106 1.0
e 134 6 23.0
e 135 255 1.0
e 135 97 1.0
e 135 106 1.0
e 135 91 1.0
e 136 294 1.0
e 136 256 1.0
e 136 109 21.0
e 136 40 1.0
e 137 76 2.0
e 137 230 32.0
e 137 61 1.0
e 137 211 1.0
e 138 60 1.0
e 138 70 1.0
e 138 32 1.0
e 138 219 1.0
e 139 26 1.0
e 139 99 1.0
e 139 227 1.0
e 139 186 2.0
e 140 77 1.0
e 140 295 1.0
e 140 166 1.0
e 140 236 1.0
e 141 192 1.0
e 141 106 1.0
e 141 242 1.0
e 141 180 11.0
e 142 141 21.0
e 142 187 22.0
e 142 82 39.0
e 142 8 46.0
e 142 6 38.0
e 143 306 1.0
e 143 244 16.0
e 143 189 2.0
e 143 138 1.0
e 144 150 1.0
e 144 164 1.0
e 144 196 1.0
e 144 22 2.0
e 145 60 1.0
e 145 15 2.0
e 145 172 34.0
e 145 26 1.0
e 146 162 1.0
e 146 165 1.0
e 146 156 1.0
e 146 74 1.0
e 147 202 43.0
e 147 82 35.0
e 147 234 27.0
e 147 244 6.0
e 147 103 45.0
e 148 124 1.0
e 148 42 1.0
e 148 4 1.0
e 148 235 1.0
e 149 141 1.0
e 149 272 1.0
e 149 122 1.0
e 149 60 1.0
e 150 160 1.0
e 150 162 2.0
e 150 274 1.0
e 150 89 15.0
e 151 99 1.0
e 151 133 26.0
e 151 109 14.0
e 151 22 1.0
e 152 138 1.0
e 152 280 25.0
e 152 226 1.0
e 152 118 1.0
e 153 307 1.0
e 153 227 1.0
e 153 52 1.0
e 154 207 1.0
e 154 82 1.0
e 154 50 1.0
e 154 190 1.0
e 155 246 1.0
e 155 280 20.0
e 155 71 1.0
e 155 287 29.0
e 156 228 1.0
e 156 98 1.0
e 156 249 1.0
e 156 303 1.0
e 157 214 1.0
e 157 313 1.0
e 157 264 1.0
e 157 292 1.0
e 158 285 14.0
e 158 239 21.0
e 158 186 38.0
e 158 291 35.0
e 159 122 1.0
e 159 244 48.0
e 159 82 1.0
e 159 203 14.0
e 160 173 27.0
e 160 74 1.0
e 160 238 1.0
e 160 92 49.0
e 161 11 2.0
e 161 295 1.0
e 161 217 2.0
e 161 303 1.0
e 162 188 1.0
e 162 104 1.0
e 162 100 1.0
e 162 222 1.0
e 163 236 2.0
e 163 301 1.0
e 163 275 1.0
e 163 111 1.0
e 164 196 1.0
e 164 146 1.0
e 164 276 1.0
e 164 280 36.0
e 165 228 1.0
e 165 121 2.0
e 165 19 1.0
e 165 262 1.0
e 166 56 1.0
e 166 259 1.0
e 166 251 1.0
e 166 242 1.0
e 167 58 33.0
e 167 282 42.0
e 167 214 30.0
e 167 309 11.0
e 167 90 34.0
e 167 172 34.0
e 167 254 3.0
e 167 115 37.0
e 168 290 2.0
e 168 44 1.0
e 168 102 1.0
e 168 229 1.0
e 169 295 1.0
e 169 53 1.0
e 169 2 1.0
e 169 117 1.0
e 170 309 1.0
e 170 279 1.0
e 170 21 1.0
e 170 101 1.0
e 171 155 1.0
e 171 260 1.0
e 171 78 1.0
e 171 98 1.0
e 172 87 10.0
e 172 268 39.0
e 172 271 31.0
e 172 300 48.0
e 173 84 30.0
e 173 110 3.0
e 173 80 1.0
e 173 38 27.0
e 173 142 36.0
e 173 167 44.0
e 173 147 38.0
e 174 305 3.0
e 174 179 1.0
e 174 129 41.0
e 174 271 1.0
e 175 242 1.0
e 175 191 1.0
e 175 47 1.0
e 175 105 1.0
e 176 59 2.0
e 176 310 1.0
e 176 69 1.0
e 176 225 1.0
e 177 313 2.0
e 177 98 1.0
e 177 12 1.0
e 177 145 2.0
e 178 127 1.0
e 178 317 41.0
e 178 246 1.0
e 178 190 1.0
e 179 156 1.0
e 179 240 1.0
e 179 146 2.0
e 179 27 42.0
e 180 184 49.0
e 180 34 36.0
e 180 300 16.0
e 180 75 22.0
e 181 65 1.0
e 181 50 2.0
e 181 171 1.0
e 182 11 1.0
e 182 105 1.0
e 182 79 1.0
e 182 53 1.0
e 183 140 1.0
e 183 181 2.0
e 183 43 1.0
e 183 155 2.0
e 184 212 1.0
e 184 315 1.0
e 184 183 2.0
e 184 144 1.0
e 185 287 41.0
e 185 53 1.0
e 185 291 1.0
e 185 293 2.0
e 186 174 1.0
e 186 166 1.0
e 186 228 2.0
e 186 95 1.0
e 187 184 2.0
e 187 0 1.0
e 187 73 1.0
e 187 78 1.0
e 188 90 8.0
e 188 318 1.0
e 188 29 1.0
e 189 106 2.0
e 189 53 1.0
e 189 59 2.0
e 189 308 2.0
e 190 168 1.0
e 190 227 1.0
e 190 134 1.0
e 190 25 17.0
e 191 98 1.0
e 191 209 2.0
e 191 136 1.0
e 191 86 2.0
e 192 125 2.0
e 192 199 1.0
e 192 9 1.0
e 193 272 1.0
e 193 154 1.0
e 193 172 39.0
e 193 153 1.0
e 194 250 1.0
e 194 30 15.0
e 194 245 1.0
e 194 240 2.0
e 195 269 6.0
e 195 250 1.0
e 195 57 1.0
e 195 301 1.0
e 196 180 49.0
e 196 60 2.0
e 196 137 1.0
e 197 205 8.0
e 197 101 33.0
e 197 25 34.0
e 197 164 19.0
e 197 172 11.0
e 197 10 43.0
e 197 281 37.0
e 198 143 1.0
e 198 52 1.0
e 198 225 1.0
e 198 223 1.0
e 199 118 1.0
e 199 260 2.0
e 199 108 1.0
e 199 74 1.0
e 200 77 1.0
e 200 269 24.0
e 200 61 1.0
e 200 175 1.0
e 201 241 1.0
e 201 139 2.0
e 201 127 2.0
e 201 186 1.0
e 202 48 1.0
e 202 317 15.0
e 202 83 1.0
e 202 277 1.0
e 203 268 13.0
e 203 227 22.0
e 203 231 20.0
e 203 40 25.0
e 204 124 1.0
e 204 9 1.0
e 204 132 2.0
e 204 44 1.0
e 205 306 1.0
e 205 96 1.0
e 205 309 1.0
e 205 41 1.0
e 206 193 44.0
e 206 223 11.0
e 206 130 10.0
e 206 300 30.0
e 206 24 49.0
e 207 84 1.0
e 207 101 1.0
e 207 136 1.0
e 207 148 1.0
e 208 86 1.0
e 208 100 1.0
e 208 243 2.0
e 208 231 1.0
e 209 46 1.0
e 209 152 3.0
e 209 317 14.0
e 209 74 2.0
e 210 101 1.0
e 210 72 2.0
e 210 299 1.0
e 210 275 1.0
e 211 180 1.0
e 211 239 2.0
e 211 14 2.0
e 211 87 1.0
e 212 14 1.0
e 212 36 2.0
e 212 312 2.0
e 212 191 2.0
e 213 196 2.0
e 213 258 1.0
e 213 112 1.0
e 213 95 1.0
e 214 207 1.0
e 214 224 2.0
e 214 156 3.0
e 214 245 2.0
e 215 200 1.0
e 215 40 1.0
e 215 277 1.0
e 215 243 1.0
e 216 227 1.0
e 216 27 10.0
e 216 0 1.0
e 216 185 1.0
e 217 97 2.0
e 217 79 1.0
e 217 145 1.0
e 218 261 27.0
e 218 25 22.0
e 218 239 2.0
e 218 14 1.0
e 219 239 2.0
e 219 309 1.0
e 219 216 1.0
e 219 99 1.0
e 220 152 2.0
e 220 16 2.0
e 220 12 1.0
e 220 286 43.0
e 221 12 2.0
e 221 62 1.0
e 221 250 1.0
e 221 92 37.0
e 222 23 1.0
e 222 36 1.0
e 222 174 1.0
e 222 275 1.0
e 223 21 1.0
e 223 89 30.0
e 223 118 1.0
e 223 113 1.0
e 224 208 2.0
e 224 1 3.0
e 224 50 1.0
e 224 273 25.0
e 225 195 1.0
e 225 266 1.0
e 225 40 1.0
e 225 263 1.0
e 226 307 1.0
e 226 76 1.0
e 226 124 1.0
e 226 303 1.0
e 227 289 2.0
e 227 170 1.0
e 227 281 21.0
e 227 25 14.0
e 228 4 1.0
e 228 147 9.0
e 228 316 1.0
e 229 128 1.0
e 229 253 1.0
e 229 39 1.0
e 229 56 1.0
e 230 9 2.0
e 230 55 17.0
e 230 206 33.0
e 230 57 36.0
e 231 145 1.0
e 231 245 1.0
e 231 40 2.0
e 231 100 1.0
e 232 178 23.0
e 232 95 2.0
e 232 192 8.0
e 232 72 23.0
e 233 139 3.0
e 233 303 1.0
e 233 213 1.0
e 234 111 1.0
e 234 233 1.0
e 234 112 2.0
e 234 190 1.0
e 235 106 1.0
e 235 244 25.0
e 235 194 1.0
e 235 212 1.0
e 236 111 2.0
e 236 242 1.0
e 236 201 1.0
e 236 294 1.0
e 237 77 1.0
e 237 86 2.0
e 237 70 1.0
e 237 17 2.0
e 238 34 1.0
e 238 146 1.0
e 238 28 1.0
e 238 64 1.0
e 239 137 1.0
e 239 29 2.0
e 239 189 2.0
e 239 262 2.0
e 240 84 2.0
e 240 204 1.0
e 240 75 1.0
e 240 177 1.0
e 241 253 1.0
e 241 2 1.0
e 241 275 1.0
e 241 102 1.0
e 242 230 22.0
e 242 127 1.0
e 242 125 1.0
e 242 13 1.0
e 243 81 1.0
e 243 36 3.0
e 243 298 29.0
e 243 69 1.0
e 244 177 30.0
e 244 160 17.0
e 244 60 12.0
e 244 102 42.0
e 245 14 1.0
e 245 270 1.0
e 245 40 1.0
e 245 230 41.0
e 246 93 1.0
e 246 258 1.0
e 246 108 1.0
e 246 19 1.0
e 247 86 1.0
e 247 301 1.0
e 247 216 1.0
e 247 259 1.0
e 248 42 2.0
e 248 230 4.0
e 248 110 1.0
e 248 101 1.0
e 249 56 2.0
e 249 227 1.0
e 249 108 2.0
e 249 2 2.0
e 250 133 30.0
e 250 282 2.0
e 250 161 1.0
e 250 231 2.0
e 251 288 1.0
e 251 18 1.0
e 252 201 2.0
e 252 144 3.0
e 252 41 1.0
e 252 118 2.0
e 253 286 6.0
e 253 288 1.0
e 253 25 21.0
e 253 170 1.0
e 254 156 37.0
e 254 297 39.0
e 254 274 11.0
e 254 134 2.0
e 254 261 12.0
e 255 313 1.0
e 255 94 1.0
e 255 124 1.0
e 255 46 1.0
e 256 128 1.0
e 256 34 1.0
e 256 228 1.0
e 256 118 2.0
e 257 149 2.0
e 257 201 2.0
e 257 280 22.0
e 257 156 1.0
e 258 264 1.0
e 258 153 1.0
e 258 203 9.0
e 258 148 1.0
e 259 223 1.0
e 259 202 1.0
e 259 144 1.0
e 259 152 1.0
e 260 0 1.0
e 260 287 49.0
e 260 224 1.0
e 260 52 2.0
e 261 224 15.0
e 261 41 10.0
e 261 210 12.0
e 261 220 19.0
e 262 80 1.0
e 262 171 1.0
e 262 161 2.0
e 262 65 1.0
e 263 20 1.0
e 263 72 1.0
e 263 79 1.0
e 263 147 27.0
e 264 14 2.0
e 264 305 2.0
e 264 155 1.0
e 264 64 1.0
e 265 121 1.0
e 265 196 1.0
e 265 224 1.0
e 265 110 1.0
e 266 57 1.0
e 266 151 1.0
e 266 196 2.0
e 266 293 2.0
e 267 29 1.0
e 267 19 1.0
e 267 89 5.0
e 267 220 1.0
e 268 88 1.0
e 268 215 1.0
e 268 286 49.0
e 268 266 1.0
e 269 148 5.0
e 269 216 12.0
e 269 242 3.0
e 269 40 16.0
e 270 149 1.0
e 270 40 1.0
e 270 125 1.0
e 270 133 33.0
e 271 58 1.0
e 271 264 2.0
e 271 150 2.0
e 271 184 2.0
e 272 46 1.0
e 272 207 1.0
e 272 188 2.0
e 272 290 2.0
e 273 208 27.0
e 273 243 34.0
e 273 125 43.0
e 273 15 34.0
e 273 27 15.0
e 273 254 7.0
e 273 173 16.0
e 273 197 14.0
e 274 278 1.0
e 274 24 27.0
e 274 136 1.0
e 274 109 24.0
e 275 154 1.0
e 275 149 1.0
e 275 65 1.0
e 275 198 1.0
e 276 96 1.0
e 276 22 2.0
e 276 52 1.0
e 276 255 1.0
e 277 67 1.0
e 277 186 1.0
e 277 20 2.0
e 277 130 1.0
e 278 156 1.0
e 278 105 1.0
e 278 34 1.0
e 278 39 2.0
e 279 259 1.0
e 279 285 2.0
e 279 82 1.0
e 279 181 1.0
e 280 146 19.0
e 280 94 20.0
e 280 205 2.0
e 280 202 33.0
e 281 137 35.0
e 281 212 30.0
e 281 104 20.0
e 281 114 2.0
e 281 30 12.0
e 282 289 2.0
e 282 131 1.0
e 282 232 17.0
e 282 45 1.0
e 283 248 1.0
e 283 249 2.0
e 283 174 1.0
e 283 277 2.0
e 284 241 1.0
e 284 53 1.0
e 284 177 1.0
e 284 121 2.0
e 285 69 2.0
e 285 57 1.0
e 285 83 1.0
e 285 187 1.0
e 286 300 28.0
e 286 190 31.0
e 286 200 48.0
e 286 277 49.0
e 287 156 10.0
e 287 96 32.0
e 287 187 4.0
e 287 134 10.0
e 288 146 1.0
e 288 47 1.0
e 288 10 36.0
e 288 224 1.0
e 289 287 29.0
e 289 311 2.0
e 289 57 1.0
e 289 284 1.0
e 290 54 1.0
e 290 274 1.0
e 290 27 30.0
e 290 21 1.0
e 291 124 1.0
e 291 261 22.0
e 291 54 1.0
e 291 105 1.0
e 292 234 2.0
e 292 119 1.0
e 292 307 1.0
e 292 236 1.0
e 293 298 43.0
e 293 15 2.0
e 293 275 1.0
e 293 145 2.0
e 294 203 8.0
e 294 232 32.0
e 294 307 1.0
e 294 198 1.0
e 295 121 1.0
e 295 66 2.0
e 295 309 1.0
e 295 201 1.0
e 296 306 1.0
e 296 181 1.0
e 296 51 42.0
e 296 298 32.0
e 297 57 1.0
e 297 136 1.0
e 297 262 1.0
e 297 109 38.0
e 298 37 48.0
e 298 136 25.0
e 298 227 11.0
e 298 68 26.0
e 299 287 45.0
e 299 18 1.0
e 299 102 1.0
e 299 252 2.0
e 300 166 1.0
e 300 121 1.0
e 300 237 1.0
e 300 167 47.0
e 301 69 1.0
e 301 234 1.0
e 301 15 2.0
e 301 213 1.0
e 302 262 1.0
e 302 132 2.0
e 302 272 1.0
e 302 239 2.0
e 303 238 1.0
e 303 184 2.0
e 303 265 1.0
e 303 31 1.0
e 304 270 1.0
e 304 190 1.0
e 304 279 1.0
e 304 309 1.0
e 305 145 2.0
e 305 246 1.0
e 305 182 1.0
e 305 270 2.0
e 306 13 1.0
e 306 242 1.0
e 306 103 19.0
e 306 311 1.0
e 307 22 2.0
e 307 187 1.0
e 307 180 12.0
e 307 4 1.0
e 308 237 1.0
e 308 203 10.0
e 308 47 3.0
e 308 262 1.0
e 309 166 1.0
e 309 82 1.0
e 309 137 1.0
e 309 92 20.0
e 310 174 1.0
e 310 215 1.0
e 310 44 2.0
e 310 195 3.0
e 311 242 1.0
e 311 184 2.0
e 311 270 2.0
e 311 103 45.0
e 312 229 1.0
e 312 98 1.0
e 312 117 1.0
e 312 26 1.0
e 313 312 1.0
e 313 82 1.0
e 313 211 2.0
e 314 211 3.0
e 314 286 22.0
e 314 34 2.0
e 314 153 1.0
e 315 85 1.0
e 315 155 1.0
e 315 11 1.0
e 315 119 1.0
e 316 314 1.0
e 316 87 1.0
e 316 142 29.0
e 316 255 1.0
e 317 269 8.0
e 317 17 12.0
e 317 67 2.0
e 317 306 11.0
e 318 110 1.0
e 318 79 1.0
e 318 185 1.0
e 318 252 1.0
e 319 62 1.0
e 319 76 1.0
e 319 256 1.0
e 319 39 1.0
